227098
227098
225196
225196
225196
225006
225006
225006
224818
221843
214949
214535
211223
211223
210299
208327
206262
203239
202772
202772
199526
199526
199526
199526
199526
194832
194832
194832
194832
194832
194832
194832
194832
194832
194832
194832
194832
194832
194832
194832
194832
194832
194832
194832
194832
194832
194832
194832
194832
194832
194832
194832
194832
188788
188788
188788
188788
188788
188788
188788
188788
188788
188788
188788
188788
188788
188788
188788
188788
188788
187559
186969
186969
186969
186969
185189
185189
185189
185189
185189
183404
183404
182290
182290
182290
182290
180636
180636
180636
180636
180636
180636
180636
180636
180636
179806
179806
179806
179806
179806
